SECTION Graph 
Nodes 12
Edges 11
E 3 10 953301
E 2 12 1998529
E 2 4 2121472
E 6 7 653293
E 6 10 2389030
E 7 11 881904
E 9 11 583784
E 5 12 2439991
E 5 9 2545642
E 8 12 1448199
E 1 11 2803771
END 

SECTION Terminals 
Terminals 10
TP 1 6
TP 2 7
TP 3 8
TP 4 9
TP 5 10
END 
